proyfinal/src/viki/013/experimentInOfficeAgust.take6.output/34f610b7-24d9-4c42-8f83-a6498f09f943.als.dat
{'cnf.clauses': '118081',
 'cnf.totvars': '69608',
 'conflict literals': '1682',
 'conflicts': '169',
 'decisions': '8483',
 'memused.mb': '16.96',
 'outcome': 'UNSAT',
 'propagations': '193799',
 'restarts': '2',
 'solver.msecs': 39,
 'task.msecs': 87}
