proyfinal/src/viki/013/experimentInOfficeAgust.take6.output/34f610b7-24d9-4c42-8f83-a6498f09f943.als.out
Reading from standard input... Use '--help' for help.
============================[ Problem Statistics ]=============================
|                                                                             |
|  Number of variables:         69608                                         |
|  Number of clauses:          118081                                         |
|  Parse time:                   0.02 s                                       |
|                                                                             |
============================[ Search Statistics ]==============================
| Conflicts |          ORIGINAL         |          LEARNT          | Progress |
|           |    Vars  Clauses Literals |    Limit  Clauses Lit/Cl |          |
===============================================================================
|       100 |   55842    78354   194018 |    28729       98     11 | 19.776 % |
===============================================================================
restarts              : 2
conflicts             : 169            (4263 /sec)
decisions             : 8483           (0.00 % random) (213958 /sec)
propagations          : 193799         (4887989 /sec)
conflict literals     : 1682           (19.41 % deleted)
Memory used           : 16.96 MB
CPU time              : 0.039648 s

UNSATISFIABLE
